9801 12116 11316
8440 9824 11661
9835 12887 10783
10220 12450 11050
10811 11612 11098
9991 13098 10043
9647 12516 11068
11089 12846 10549
11312 12668 10444
11852 12272 9792
10111 12944 10653
11446 12650 10337
9416 12553 11049
11295 11834 10630
10125 13080 9936
8987 11027 11540
10962 12428 10805
